s td 132 17 193
b 1 56 72 107
b 2 87 95 190
b 3 58 91 107
b 4 104 117 180 192
b 5 95 118 186
b 6 9 78 94 132
b 7 14 69 119 173
b 8 24 33 72 132
b 9 28 41 81 175
b 10 43 120 173 190
b 11 28 49 89 130
b 12 54 64 130 146
b 13 1 4 26 34 35 83 86 99 122 123 136 139 143 147 155 169
b 14 4 26 34 35 83 84 86 99 122 123 136 139 143 147 155 169
b 15 26 34 35 67 83 84 86 99 122 123 136 139 143 147 148 155 169
b 16 26 67 84 86 99 123 136 139 143 144 147 148 155 169
b 17 26 40 67 84 86 99 114 125 136 144 147 148 155 166 169 189
b 18 18 26 40 67 84 99 114 125 136 144 147 148 155 166 169 189
b 19 18 40 67 84 99 114 125 136 144 147 148 155 166 169 189 191
b 20 18 40 67 99 114 125 136 144 147 148 155 156 166 169 189 191
b 21 18 40 67 75 114 125 136 144 147 148 155 156 166 169 189 191
b 22 18 40 61 67 75 114 125 136 144 147 148 156 166 169 189 191
b 23 5 18 40 61 67 75 114 125 144 147 148 156 166 169 189 191
b 24 5 11 18 40 61 75 90 114 125 144 147 148 156 166 169 189 191
b 25 5 11 18 40 61 70 75 90 97 114 147 151 156 166 169 191
b 26 11 18 40 61 70 75 90 97 147 151 156 169 191 193
b 27 11 18 40 61 70 75 90 97 147 151 154 156 169 193
b 28 11 18 40 70 75 90 96 97 147 151 154 156 169 193
b 29 11 18 40 48 70 75 90 96 97 147 151 154 156 193
b 30 11 18 23 40 48 70 75 90 96 97 151 154 156 193
b 31 11 16 18 23 40 48 70 75 90 96 97 151 154 193
b 32 11 16 18 23 40 48 53 70 90 92 96 97 98 151 154 164 193
b 33 16 18 23 40 48 50 53 70 92 96 98 111 124 154 164 193
b 34 7 16 18 23 40 48 50 55 92 96 98 111 124 154 175 184 193
b 35 7 16 18 25 28 40 48 50 55 92 96 98 111 124 175 184 193
b 36 7 18 25 28 31 50 55 92 96 98 111 121 124 175 184 193
b 37 7 18 25 28 31 50 55 96 111 113 121 124 175 184 193
b 38 7 18 25 28 31 50 55 89 96 111 113 121 124 175 184
b 39 18 25 28 31 50 55 59 89 96 111 113 121 124 175
b 40 25 28 31 55 59 89 96 111 112 113 121 175
b 41 28 31 54 59 89 96 112 113 121 175
b 42 28 31 54 89 96 112 113 121 130 175
b 43 54 85 89 96 121 130
b 44 6 54 85 130
b 45 85 89 96 121 130 132 173
b 46 85 96 121 130 132 167 173
b 47 85 95 96 107 132 167 173
b 48 121 126 130 132 167 173
b 49 28 54 80 113 130 175
b 50 54 112 121 130 146 175
b 51 28 54 59 161 175
b 52 7 25 31 50 55 82 92 98 111 121 124 175 184
b 53 7 21 25 50 55 82 92 111 121 124 175 184
b 54 7 16 25 28 46 50 55 124 175 184
b 55 25 28 40 50 55 81 124 175
b 56 7 25 28 48 50 182 184
b 57 7 23 55 65 124 175 184
b 58 7 55 103 124 154 175 184
b 59 15 50 53 70 111 124 164
b 60 11 16 23 48 53 70 90 92 96 97 98 102 141 151 154 164 193
b 61 11 13 53 70 90 92 97 98 102 141 151 164
b 62 11 13 37 53 70 92 97 102 141 151 164
b 63 5 70 71 97 114 151 166
b 64 5 8 11 61 74 75 90 114 125 144 147 148 156 166 169 189 191
b 65 5 8 11 74 90 114 125 144 148 166 183 189
b 66 5 8 11 74 114 125 145 148 166 183 189
b 67 18 26 114 125 133 166 189
b 68 40 86 110 114 125 166 189
b 69 26 30 32 34 35 67 83 84 86 99 122 123 136 139 143 148 155
b 70 30 32 34 35 67 83 122 123 139 143 148 159
b 71 30 32 34 35 67 122 123 139 143 159 160
b 72 1 4 26 34 35 83 86 99 122 123 136 139 143 147 155 165
b 73 1 4 26 34 35 60 83 86 99 122 129 136 139 155 165 177
b 74 1 4 26 60 83 86 99 122 129 136 155 165 176 177
b 75 1 4 26 60 83 86 99 122 129 136 165 171 176 177
b 76 1 4 26 60 83 99 122 129 136 138 165 171 176 177
b 77 1 4 26 60 83 99 109 122 129 138 165 171 176 177
b 78 1 4 17 60 83 99 109 122 129 138 165 171 176 177
b 79 1 4 17 60 79 83 109 122 128 129 138 152 165 171 176 177 187
b 80 1 4 17 63 66 73 79 109 128 129 138 152 165 171 176 187
b 81 1 4 10 17 45 51 63 66 73 79 109 117 128 138 165 171 176
b 82 10 12 17 45 51 66 117
b 83 1 4 10 42 45 51 63 66 73 79 109 117 128 163 165 171 176
b 84 10 38 42 45 51 63 66 73 117 128 163
b 85 1 4 10 42 45 51 63 66 73 104 109 117 163 165 171 176
b 86 10 42 73 77 104 117
b 87 10 45 51 66 73 104 106 117 163 176
b 88 51 66 73 104 127 163 165
b 89 10 45 73 104 109 117 137 163
b 90 10 45 73 104 117 140 163 171
b 91 1 51 66 73 104 157 163
b 92 4 10 45 51 66 73 104 117 163 174
b 93 10 45 51 66 117 138 168
b 94 63 66 73 129 152 172 187
b 95 4 17 36 39 60 79 83 109 122 128 129 138 152 171 176 177 187
b 96 29 36 39 60 79 83 122 128 129 152 177 187
b 97 29 36 39 60 79 100 122 129 152 177 187
b 98 34 35 60 62 129 139 177
b 99 34 35 68 123 143 147 165
b 100 1 34 35 57 123 143 169
b 101 101 104 117 140
b 102 27 116 131 173
b 103 27 134 173 179
b 104 104 117 135 174
b 105 104 106 117 150
b 106 28 46 158 175
b 107 104 117 137 185
b 108 77 104 117 192
b 109 19 126 130 132 173
b 110 44 51 63 104 163
b 111 22 47 69 95 118 119 120 142 153
b 112 2 22 69 93 95 115 118 119 120 142 153
b 113 2 22 69 93 95 115 119 120 153 173
b 114 2 20 22 93 95 115 120 153 170 173
b 115 20 22 88 93 95 105 115 120 170 173
b 116 20 24 88 95 105 107 115 120 132 170 173
b 117 24 85 95 107 120 132 173
b 118 24 95 107 120 132 173 190
b 119 20 24 52 88 105 107 115 132 170 173
b 120 27 52 115 132 173
b 121 3 27 52 132 173
b 122 20 24 52 78 88 94 105 107 132 170
b 123 20 24 52 58 78 88 94 105 107 170 181
b 124 24 58 78 94 105 107 170 178 181
b 125 28 54 76 112 175
b 126 21 108 124 175 184
b 127 3 27 131 132 173
b 128 3 27 132 173 179
b 129 25 55 111 112 162
b 130 38 45 66 117 188
b 131 24 72 95 107 120 132 190
b 132 24 85 95 107 120 149
1 131
2 118
3 123
4 108
5 111
6 122
7 113
8 131
9 55
10 118
11 42
12 50
13 14
13 72
13 100
14 15
15 16
15 69
16 17
17 18
17 68
18 19
18 67
19 20
20 21
21 22
22 23
23 24
24 25
24 64
25 26
25 63
26 27
27 28
28 29
29 30
30 31
31 32
32 33
32 60
33 34
33 59
34 35
34 57
34 58
35 36
35 54
35 55
35 56
36 37
36 52
37 38
38 39
39 40
40 129
40 41
41 125
41 42
41 51
42 43
42 49
42 50
43 44
43 45
45 46
46 47
46 48
47 117
48 109
52 53
53 126
54 106
60 61
61 62
64 65
65 66
69 70
70 71
72 73
72 99
73 74
73 98
74 75
75 76
76 77
77 78
78 79
79 80
79 95
80 81
80 94
81 82
81 83
81 93
83 84
83 85
84 130
85 110
85 86
85 87
85 88
85 89
85 90
85 91
85 92
86 108
87 105
89 107
90 101
92 104
95 96
96 97
102 127
103 128
111 112
112 113
113 114
114 115
115 116
116 119
116 117
117 132
117 118
118 131
119 120
119 122
120 121
121 127
121 128
122 123
123 124
